5
4
20
1 1.3 1.55 1.75 2.1
38 19 20 44 24 40 30 30 27 32 43 41 23 26 38 15 17 22 42 15 11 5 33 10 11 43 41 38 40 42 24 6 39 5 11 27 44 38 48 15 24 14 33 19 10 41 28 46 47 42 17 12 22 30 35 10 9 30 42 26 5 44 31 38 18 46 20 25 39 36 15 39 10 30 47 34 40 24 5 46 